
--- Job MTSP_gams.gms Start 11/29/23 16:38:27 45.2.0 e4d2ee31 WEX-WEI x86 64bit/MS Windows
--- Applying:
    C:\GAMS\45\gmsprmNT.txt
--- GAMS Parameters defined
    Input C:\Users\kasha\OneDrive\Desktop\project\MTSP\MTSP_mathematicalP\MTSP_gams.gms
    PageSize 0
    ScrDir C:\Users\kasha\OneDrive\Desktop\project\MTSP\MTSP_mathematicalP\225a\
    SysDir C:\GAMS\45\
    LogOption 3
    ErrMsg 1
    ErrorLog 99
    IDE 1
    LstTitleLeftAligned 1
Licensee: GAMS Demo, for EULA and demo limitations see   G230930/0001CB-GEN
          https://www.gams.com/latest/docs/UG%5FLicense.html         DC0000
          C:\GAMS\45\gamslice.txt
          Demo license for demonstration and instructional purposes only
Processor information: 1 socket(s), 4 core(s), and 8 thread(s) available
GAMS 45.2.0   Copyright (C) 1987-2023 GAMS Development. All rights reserved
--- Starting compilation
--- MTSP_gams.gms(108) 3 Mb
--- Starting execution: elapsed 0:00:00.012
--- MTSP_gams.gms(105) 4 Mb
--- Generating MIP model mtsp
--- MTSP_gams.gms(108) 4 Mb
---   815 rows  841 columns  4,705 non-zeroes
---   812 discrete-columns
--- Range statistics (absolute non-zero finite values)
--- RHS       [min, max] : [ 1.000E+00, 2.800E+01] - Zero values observed as well
--- Bound     [min, max] : [ 1.000E+00, 1.000E+00] - Zero values observed as well
--- Matrix    [min, max] : [ 1.000E+00, 3.860E+02]
--- Executing CPLEX (Solvelink=2): elapsed 0:00:00.033

IBM ILOG CPLEX   45.2.0 e4d2ee31 Oct 30, 2023          WEI x86 64bit/MS Window

*** This solver runs with a demo license. No commercial use.
--- GMO setup time: 0.00s
--- Space for names approximately 0.03 Mb
--- Use option 'names no' to turn use of names off
--- GMO memory 0.69 Mb (peak 0.70 Mb)
--- Dictionary memory 0.00 Mb
--- Cplex 22.1.1.0 link memory 0.03 Mb (peak 0.12 Mb)
--- Starting Cplex

Version identifier: 22.1.1.0 | 2022-11-27 | 9160aff4d
CPXPARAM_Advance                                 0
CPXPARAM_Threads                                 1
CPXPARAM_MIP_Display                             4
CPXPARAM_MIP_Pool_Capacity                       0
CPXPARAM_Simplex_Limits_Iterations               10000000
CPXPARAM_MIP_Tolerances_AbsMIPGap                0
CPXPARAM_MIP_Tolerances_MIPGap                   0
Generic callback                                 0x50
Tried aggregator 1 time.
MIP Presolve eliminated 0 rows and 1 columns.
Reduced MIP has 814 rows, 840 columns, and 3892 nonzeros.
Reduced MIP has 812 binaries, 0 generals, 0 SOSs, and 0 indicators.
Presolve time = 0.00 sec. (2.06 ticks)
Found incumbent of value 5348.000000 after 0.00 sec. (5.66 ticks)
Probing time = 0.00 sec. (2.53 ticks)
Tried aggregator 1 time.
Detecting symmetries...
Reduced MIP has 814 rows, 840 columns, and 3892 nonzeros.
Reduced MIP has 812 binaries, 0 generals, 0 SOSs, and 0 indicators.
Presolve time = 0.02 sec. (2.78 ticks)
Probing time = 0.00 sec. (2.53 ticks)
Clique table members: 434.
MIP emphasis: balance optimality and feasibility.
MIP search method: dynamic search.
Parallel mode: none, using 1 thread.
Tried aggregator 1 time.
No LP presolve or aggregator reductions.
Presolve time = 0.00 sec. (0.42 ticks)
Initializing dual steep norms . . .

Iteration log . . .
Iteration:     1   Dual objective     =           577.000000
Root relaxation solution time = 0.00 sec. (1.39 ticks)

        Nodes                                         Cuts/
   Node  Left     Objective  IInf  Best Integer    Best Bound    ItCnt     Gap

*     0+    0                         5348.0000        0.0000           100.00%
Found incumbent of value 5348.000000 after 0.02 sec. (17.11 ticks)
      0     0     1798.2414    56     5348.0000     1798.2414       75   66.38%
      0     0     1828.5000    50     5348.0000      Cuts: 74      130   65.81%
      0     0     1836.0000    54     5348.0000      Cuts: 42      158   65.67%
      0     0     1836.4828    52     5348.0000      Cuts: 35      192   65.66%
      0     0     1843.0000    52     5348.0000      Cuts: 55      208   65.54%
      0     0     1850.1034    53     5348.0000       Cuts: 3      215   65.41%
Detecting symmetries...
      0     0     1850.1034    53     5348.0000      Cuts: 14      219   65.41%
      0     0     1851.5000    24     5348.0000       Cuts: 5      222   65.38%
      0     0     1851.5000    24     5348.0000      Cuts: 13      227   65.38%
*     0+    0                         2349.0000     1851.5000            21.18%
Found incumbent of value 2349.000000 after 0.22 sec. (191.51 ticks)
*     0+    0                         2273.0000     1851.5000            18.54%
Found incumbent of value 2273.000000 after 0.33 sec. (290.71 ticks)
      0     0  -1.00000e+75     0     2273.0000     1851.5000      227   18.54%
Detecting symmetries...
      0     2     1851.5000    24     2273.0000     1853.0000      227   18.48%
Elapsed time = 0.34 sec. (292.09 ticks, tree = 0.01 MB)
*     8     7      integral     0     1916.0000     1856.0000      358    3.13%
Found incumbent of value 1916.000000 after 0.34 sec. (299.39 ticks)
*    40    13      integral     0     1885.0000     1859.0000      840    1.38%
                                                      Cuts: 5                  
Found incumbent of value 1885.000000 after 0.38 sec. (334.09 ticks)
*    87     4      integral     0     1870.0000     1863.2759     1259    0.36%
                                                     Cuts: 11                  
Found incumbent of value 1870.000000 after 0.41 sec. (369.35 ticks)

Clique cuts applied:  10
Cover cuts applied:  6
Implied bound cuts applied:  9
Flow cuts applied:  5
Mixed integer rounding cuts applied:  10
Zero-half cuts applied:  1
Multi commodity flow cuts applied:  2
Gomory fractional cuts applied:  2

Root node processing (before b&c):
  Real time             =    0.34 sec. (292.08 ticks)
Sequential b&c:
  Real time             =    0.06 sec. (79.82 ticks)
                          ------------
Total (root+branch&cut) =    0.41 sec. (371.90 ticks)

--- MIP status (101): integer optimal solution.
--- Cplex Time: 0.41sec (det. 371.91 ticks)

--- Returning a primal only solution to GAMS (marginals all set to NA).
--- Fixing integer variables and solving final LP...

Version identifier: 22.1.1.0 | 2022-11-27 | 9160aff4d
CPXPARAM_Advance                                 2
CPXPARAM_Threads                                 1
CPXPARAM_MIP_Display                             4
CPXPARAM_MIP_Pool_Capacity                       0
CPXPARAM_Simplex_Limits_Iterations               10000000
CPXPARAM_MIP_Tolerances_AbsMIPGap                0
CPXPARAM_MIP_Tolerances_MIPGap                   0
Tried aggregator 1 time.
LP Presolve eliminated 58 rows and 813 columns.
Reduced LP has 756 rows, 28 columns, and 1512 nonzeros.
Presolve time = 0.00 sec. (0.86 ticks)
Symmetry aggregator did 158 additional substitutions.

Iteration log . . .
Iteration:     1   Dual objective     =          1870.000000

Dual crossover.
  Dual:  Fixed no variables.
  Primal:  Fixed no variables.

--- Fixed MIP status (1): optimal.
--- Cplex Time: 0.02sec (det. 2.33 ticks)


Proven optimal solution
MIP Solution:         1870.000000    (1273 iterations, 93 nodes)
Final Solve:          1870.000000    (23 iterations)

Best possible:        1870.000000
Absolute gap:            0.000000
Relative gap:            0.000000

--- Reading solution for model mtsp
*** Status: Normal completion
--- Job MTSP_gams.gms Stop 11/29/23 16:38:28 elapsed 0:00:00.509
